100
30
12
31
18
4
11
30
8
32
7
10
13
7
25
32
15
31
8
9
13
15
31
19
4
23
7
7
31
19
1
20
4
7
6
1
5
6
20
3
23
7
2
32
20
32
31
20
18
7
31
30
17
4
10
10
32
32
2
1
31
20
4
17
31
3
1
4
20
22
10
7
32
3
27
32
1
4
31
16
1
17
2
8
16
6
31
2
27
6
7
6
9
3
31
12
18
32
11
18
4
2